p edge 50 245
e 1 2
e 1 5
e 1 6
e 1 10
e 1 15
e 1 19
e 1 31
e 1 43
e 2 10
e 2 11
e 2 13
e 2 16
e 2 18
e 2 32
e 2 34
e 2 40
e 2 41
e 2 43
e 2 44
e 2 48
e 2 49
e 3 4
e 3 8
e 3 12
e 3 16
e 3 24
e 3 27
e 3 29
e 3 33
e 3 38
e 3 44
e 3 47
e 4 6
e 4 19
e 4 21
e 4 36
e 4 40
e 5 6
e 5 7
e 5 8
e 5 14
e 5 15
e 5 17
e 5 21
e 5 26
e 5 27
e 5 29
e 5 32
e 5 33
e 5 35
e 5 46
e 5 47
e 6 9
e 6 12
e 6 15
e 6 17
e 6 23
e 6 25
e 6 28
e 6 30
e 6 31
e 6 36
e 6 46
e 6 47
e 6 49
e 7 12
e 7 19
e 7 21
e 7 28
e 7 31
e 7 35
e 7 41
e 7 48
e 8 9
e 8 27
e 8 29
e 8 38
e 8 39
e 8 43
e 8 47
e 9 12
e 9 23
e 9 27
e 9 34
e 9 44
e 9 47
e 9 50
e 10 19
e 10 20
e 10 22
e 10 27
e 10 38
e 10 46
e 10 47
e 11 18
e 11 24
e 11 30
e 11 33
e 11 34
e 11 46
e 12 19
e 12 21
e 12 32
e 12 33
e 12 38
e 12 49
e 12 50
e 13 14
e 13 37
e 13 38
e 13 42
e 14 25
e 14 28
e 14 31
e 14 37
e 14 42
e 14 44
e 14 48
e 15 20
e 15 22
e 15 27
e 15 28
e 15 33
e 15 35
e 15 37
e 15 43
e 16 20
e 16 26
e 16 27
e 16 32
e 16 35
e 16 50
e 17 20
e 17 21
e 17 26
e 17 28
e 17 29
e 17 38
e 17 39
e 17 40
e 17 46
e 17 47
e 17 49
e 17 50
e 18 21
e 18 40
e 18 42
e 18 46
e 19 21
e 19 22
e 19 24
e 19 41
e 19 48
e 19 49
e 19 50
e 20 32
e 20 36
e 20 38
e 20 42
e 20 45
e 20 48
e 20 50
e 21 26
e 21 29
e 21 30
e 21 38
e 21 39
e 21 43
e 22 25
e 22 26
e 22 28
e 22 30
e 22 35
e 22 50
e 23 27
e 23 30
e 23 39
e 23 49
e 24 29
e 24 30
e 24 34
e 24 35
e 24 44
e 24 45
e 25 33
e 25 37
e 25 39
e 25 45
e 25 48
e 25 50
e 26 29
e 26 32
e 26 35
e 26 37
e 26 42
e 27 39
e 27 45
e 27 46
e 28 30
e 28 31
e 28 32
e 28 36
e 28 42
e 28 43
e 28 45
e 29 31
e 29 32
e 29 35
e 29 40
e 29 41
e 29 49
e 30 33
e 30 39
e 30 41
e 31 32
e 31 33
e 31 35
e 31 47
e 32 49
e 33 37
e 34 36
e 34 37
e 34 38
e 34 47
e 35 38
e 35 41
e 35 48
e 35 49
e 36 42
e 36 49
e 37 39
e 37 43
e 37 49
e 38 41
e 39 44
e 39 46
e 39 47
e 40 50
e 41 47
e 43 48
e 44 46
e 45 46
e 45 48
e 45 49
e 46 50
